(set-logic HORN)
(declare-fun state (Int Int (Array Int Int) Int Int Int (Array Int Int) Int Bool Bool Int Int Int Int Int) Bool)
(assert (forall ((|A_4| Int) (|.y.6| Int) (|B_4| (Array Int Int)) (|C_3| Int) (|D_3| Int) (|E_3| Int) (|F_3| (Array Int Int)) (|G_3| Int) (|.loc.7| Bool) (|.loc.8| Bool) (|M_2| Int) (|N_2| Int) (|I_4| Int) (|I_5| Int) (|M_4| Int) (|.loc.12| Bool) (|.x.19| Int) (|.x.18| (Array Int Int)) (|.x.17| Int) (|.x.16| Int) (|L_3| Int) (|.y.11| Int) (|.y.9| Int) (|.y.10| (Array Int Int)) (|.loc.13| Bool) (|.xtv.1| Int) (|.xtv.2| Int) (|.xtv.3| Int) (|.xpv.1| Int) (|.xpv.2| Int)) (=> (and (not .loc.7) (not .loc.8)) (state |A_4| |.y.6| |B_4| |C_3| |D_3| |E_3| |F_3| |G_3| |.loc.7| |.loc.8| |M_2| |N_2| |I_4| |I_5| |M_4|))))
(assert (forall ((|A_4| Int) (|.y.6| Int) (|B_4| (Array Int Int)) (|C_3| Int) (|D_3| Int) (|E_3| Int) (|F_3| (Array Int Int)) (|G_3| Int) (|.loc.7| Bool) (|.loc.8| Bool) (|M_2| Int) (|N_2| Int) (|I_4| Int) (|I_5| Int) (|M_4| Int) (|.loc.12| Bool) (|.x.19| Int) (|.x.18| (Array Int Int)) (|.x.17| Int) (|.x.16| Int) (|L_3| Int) (|.y.11| Int) (|.y.9| Int) (|.y.10| (Array Int Int)) (|.loc.13| Bool) (|.xtv.1| Int) (|.xtv.2| Int) (|.xtv.3| Int) (|.xpv.1| Int) (|.xpv.2| Int)) (=> (and (state |A_4| |.y.6| |B_4| |C_3| |D_3| |E_3| |F_3| |G_3| |.loc.7| |.loc.8| |M_2| |N_2| |I_4| |I_5| |M_4|) (let ((.def_25 (not .loc.7))) (let ((.def_26 (not .loc.8))) (let ((.def_38 (<= G_3 C_3))) (let ((.def_45 (= L_3 0))) (let ((.def_49 (<= .y.6 0))) (let ((.def_51 (not (<= I_4 0)))) (let ((.def_62 (select B_4 I_4))) (let ((.def_71 (= (+ C_3 (* (- 1) L_3)) (- 1)))) (let ((.def_77 (= A_4 .x.16))) (let ((.def_80 (= B_4 .x.18))) (let ((.def_82 (= D_3 .x.19))) (let ((.def_94 (not .loc.12))) (let ((.def_98 (= F_3 .y.10))) (let ((.def_100 (<= E_3 .y.6))) (let ((.def_109 (<= E_3 0))) (let ((.def_111 (<= A_4 0))) (let ((.def_139 (not .def_111))) (let ((.def_145 (= E_3 .y.9))) (let ((.def_160 (not .loc.13))) (or (or (and (or (or (and (and .loc.8 .loc.12) (or (and .def_25 (and (and (= G_3 .x.19) (and (= F_3 .x.18) (and (= E_3 .x.17) (and (= D_3 .x.16) .def_38)))) .def_45)) (and (and (and (= .y.6 .x.17) (and (and (or .def_49 .def_51) (and (= (+ .y.6 (+ C_3 (* (- 1) I_4))) 0) (and (not .def_49) (and (not (<= D_3 C_3)) (and (and .loc.7 (= (+ A_4 (* (- 1) .def_62)) (- 42))) .def_71))))) .def_77)) .def_80) .def_82))) (and (= E_3 .y.11) (and (= D_3 .y.9) (and (= C_3 .x.19) (and (and (and .def_26 (and (and .def_80 (and .def_77 (and .loc.7 .def_45))) .def_94)) .def_98) .def_100))))) (and (= G_3 .y.11) (and (and (or (not (<= N_2 0)) .def_109) (and (or .def_51 .def_111) (and (= (+ C_3 (+ E_3 (* (- 1) N_2))) 0) (and (= (+ A_4 (+ C_3 (* (- 1) I_4))) 0) (and (and (not .def_109) (and (= (+ D_3 (+ (* (- 1) M_2) .def_62)) 0) (and (= .y.10 (store F_3 N_2 M_2)) (and .def_94 (and .def_82 (and .def_80 (and .def_77 (and .def_71 (and .def_25 (and .loc.8 (not .def_38))))))))))) .def_139))))) .def_145))) .loc.13) (and (not (<= .x.19 0)) (and (not (<= .x.16 0)) (and (not (<= .y.9 0)) (and (= .x.17 0) (and (and .def_26 (and .def_25 .loc.12)) .def_160)))))) (and (= C_3 L_3) (and (or .def_111 (not (<= M_2 0))) (and (not .def_100) (and (= (+ A_4 (+ .y.6 (* (- 1) M_2))) 0) (and (= (+ .y.6 (* (- 1) .x.17)) (- 1)) (and (= .x.18 (store B_4 M_2 42)) (and .def_160 (and .def_145 (and .def_139 (and .def_98 (and .def_26 (and .def_82 (and .def_77 (and .loc.7 .loc.12))))))))))))))))))))))))))))))))))) (state |.x.16| |.x.17| |.x.18| |L_3| |.x.19| |.y.9| |.y.10| |.y.11| |.loc.12| |.loc.13| |.xtv.1| |.xtv.2| |.xtv.3| |.xpv.1| |.xpv.2|))))
(assert (forall ((|A_4| Int) (|.y.6| Int) (|B_4| (Array Int Int)) (|C_3| Int) (|D_3| Int) (|E_3| Int) (|F_3| (Array Int Int)) (|G_3| Int) (|.loc.7| Bool) (|.loc.8| Bool) (|M_2| Int) (|N_2| Int) (|I_4| Int) (|I_5| Int) (|M_4| Int) (|.loc.12| Bool) (|.x.19| Int) (|.x.18| (Array Int Int)) (|.x.17| Int) (|.x.16| Int) (|L_3| Int) (|.y.11| Int) (|.y.9| Int) (|.y.10| (Array Int Int)) (|.loc.13| Bool) (|.xtv.1| Int) (|.xtv.2| Int) (|.xtv.3| Int) (|.xpv.1| Int) (|.xpv.2| Int)) (=> (state |A_4| |.y.6| |B_4| |C_3| |D_3| |E_3| |F_3| |G_3| |.loc.7| |.loc.8| |M_2| |N_2| |I_4| |I_5| |M_4|) (let ((.def_49 (<= .y.6 0))) (not (and (and .loc.7 .loc.8) (and (and (and (and (= (+ A_4 (* (- 1) M_4)) (- 42)) (and (not .def_49) (not (<= D_3 C_3)))) (= (+ .y.6 (+ C_3 (* (- 1) I_5))) 0)) (not (= M_4 (select B_4 I_5)))) (or .def_49 (not (<= I_5 0))))))))))
(check-sat)
